c is-unsat
p cnf 10 72
3 -10 -2 0
-7 10 -6 0
1 4 9 0
-6 -5 2 0
-3 -2 -10 0
2 5 10 0
-6 -10 -8 0
1 -2 -10 0
-1 5 2 0
10 -5 -6 0
4 5 -8 0
-1 -8 -9 0
-5 -10 -9 0
7 6 -4 0
-7 -4 -6 0
-2 7 -9 0
1 -3 8 0
6 -1 -8 0
5 8 -1 0
8 7 1 0
-4 -6 -1 0
-2 -3 -1 0
-7 -5 -9 0
7 6 1 0
-7 6 -5 0
7 -5 -10 0
5 -7 9 0
-9 10 -5 0
-4 1 -5 0
7 -5 -10 0
-1 -5 9 0
-8 -2 -1 0
-2 -10 4 0
-3 -7 -6 0
-6 -4 -8 0
-5 -9 -8 0
4 -1 7 0
1 -7 -2 0
3 -7 8 0
-2 -5 -6 0
-1 -5 -3 0
-8 -7 -6 0
10 6 -9 0
1 -8 7 0
-10 -9 -4 0
-10 -5 -9 0
-8 2 -7 0
-10 4 1 0
-6 -7 8 0
-9 -10 -1 0
-5 -7 3 0
7 -10 -8 0
-2 5 -8 0
4 -9 10 0
2 -7 -1 0
4 -1 -5 0
2 -8 7 0
-7 2 -9 0
3 -1 7 0
1 2 -9 0
-6 -2 7 0
-4 9 8 0
10 -2 -8 0
-3 5 -8 0
-9 -8 -7 0
-3 -6 -5 0
-10 -2 -7 0
-10 8 -4 0
-2 5 -10 0
8 -5 -9 0
-9 -1 5 0
-3 10 -4 0
